c description: Random 3-CNF over 20 variables and 85 clauses
c generator: CNFgen (0.9.2)
c copyright: (C) 2012-2022 Massimo Lauria <massimo.lauria@uniroma1.it>
c url: https://massimolauria.net/cnfgen
c command line: cnfgen --output CNF_4.28/20_bit_85_565.cnf randkcnf 3 20 85
c
p cnf 20 85
5 -13 14 0
-2 6 -20 0
-2 -6 -9 0
-4 -13 20 0
3 12 15 0
6 13 17 0
12 -15 18 0
12 15 16 0
1 -11 -15 0
5 9 16 0
-15 16 -20 0
-1 4 -11 0
4 -8 -17 0
14 -17 -18 0
-2 11 -19 0
-8 -10 12 0
-12 18 20 0
6 11 -17 0
-10 17 20 0
1 13 19 0
-5 9 17 0
-15 -19 -20 0
-11 17 20 0
8 18 20 0
-3 -9 -18 0
-3 13 -17 0
-1 -3 14 0
-5 11 17 0
1 -8 12 0
-5 -9 -15 0
7 -12 -16 0
-3 -11 -18 0
-1 9 -11 0
-6 -9 17 0
11 12 -13 0
1 -2 18 0
3 6 10 0
-2 -10 -13 0
8 10 17 0
6 14 16 0
1 -4 7 0
-1 -16 20 0
3 5 -12 0
2 -9 -16 0
11 14 15 0
-2 4 19 0
8 15 -20 0
11 -16 20 0
13 18 19 0
11 12 -18 0
-3 -10 -13 0
-8 -12 16 0
1 13 14 0
2 4 20 0
-1 7 15 0
-5 -8 12 0
5 12 19 0
1 5 -11 0
3 -6 -10 0
-7 13 -14 0
6 8 15 0
-2 6 13 0
1 4 7 0
2 4 5 0
-8 -15 -16 0
-4 -6 16 0
-2 -16 -18 0
-7 11 -17 0
-2 3 -12 0
-1 -14 -15 0
11 -14 17 0
-2 3 -4 0
9 -13 19 0
-10 -14 15 0
10 13 18 0
-2 -6 -7 0
-5 6 15 0
5 8 19 0
3 -7 -18 0
8 12 -15 0
-4 -6 18 0
5 16 19 0
6 8 17 0
-3 10 -18 0
1 -4 -16 0
